p cnf 804 2765
1 -2 -3 0
2 -1 -3 0
-1 -2 3 0
2 1 3 0
-4 -3 0
2 -1 -5 0
1 -2 -5 0
5 -2 -1 0
5 2 1 0
-6 5 0
-7 5 0
-8 5 0
9 -10 -11 0
10 -9 -11 0
-9 -10 11 0
10 9 11 0
-4 -11 0
10 -9 -12 0
9 -10 -12 0
12 -10 -9 0
12 10 9 0
-6 12 0
-7 12 0
-8 12 0
13 -14 -15 0
14 -13 -15 0
-13 -14 15 0
14 13 15 0
-4 -15 0
14 -13 -16 0
13 -14 -16 0
16 -14 -13 0
16 14 13 0
-6 16 0
-7 16 0
-8 16 0
17 -18 -19 0
18 -17 -19 0
-17 -18 19 0
18 17 19 0
-4 -19 0
18 -17 -20 0
17 -18 -20 0
20 -18 -17 0
20 18 17 0
-6 20 0
-7 20 0
-8 20 0
21 -22 -23 0
22 -21 -23 0
-21 -22 23 0
22 21 23 0
-4 -23 0
22 -21 -24 0
21 -22 -24 0
24 -22 -21 0
24 22 21 0
-6 24 0
-7 24 0
-8 24 0
25 -26 -27 0
26 -25 -27 0
-25 -26 27 0
26 25 27 0
-4 -27 0
26 -25 -28 0
25 -26 -28 0
28 -26 -25 0
28 26 25 0
-6 28 0
-7 28 0
-8 28 0
29 -30 -31 0
30 -29 -31 0
-29 -30 31 0
30 29 31 0
-4 -31 0
30 -29 -32 0
29 -30 -32 0
32 -30 -29 0
32 30 29 0
-6 32 0
-7 32 0
-8 32 0
33 -34 -35 0
34 -33 -35 0
-33 -34 35 0
34 33 35 0
-4 -35 0
34 -33 -36 0
33 -34 -36 0
36 -34 -33 0
36 34 33 0
-6 36 0
-7 36 0
-8 36 0
37 -38 -39 0
38 -37 -39 0
-37 -38 39 0
38 37 39 0
-4 -39 0
38 -37 -40 0
37 -38 -40 0
40 -38 -37 0
40 38 37 0
-6 40 0
-7 40 0
-8 40 0
41 -42 -43 0
42 -41 -43 0
-41 -42 43 0
42 41 43 0
-4 -43 0
42 -41 -44 0
41 -42 -44 0
44 -42 -41 0
44 42 41 0
-6 44 0
-7 44 0
-8 44 0
45 -46 -47 0
46 -45 -47 0
-45 -46 47 0
46 45 47 0
-4 -47 0
46 -48 -49 0
48 -46 -49 0
49 -46 -48 0
49 46 48 0
-6 49 0
-45 50 0
-51 50 0
45 51 -50 0
46 -50 -52 0
-46 50 -52 0
-46 -50 52 0
46 50 52 0
-7 52 0
45 53 0
51 53 0
-45 -51 -53 0
-46 53 -54 0
46 -53 -54 0
54 -53 -46 0
46 53 54 0
-8 -54 0
48 -51 -55 0
51 -48 -55 0
-48 -51 55 0
48 51 55 0
-4 -55 0
51 -56 -57 0
56 -51 -57 0
57 -51 -56 0
57 51 56 0
-6 57 0
-48 58 0
-59 58 0
48 59 -58 0
51 -58 -60 0
-51 58 -60 0
-51 -58 60 0
51 58 60 0
-7 60 0
48 61 0
59 61 0
-48 -59 -61 0
-51 61 -62 0
51 -61 -62 0
62 -61 -51 0
51 61 62 0
-8 -62 0
56 -59 -63 0
59 -56 -63 0
-56 -59 63 0
56 59 63 0
-4 -63 0
59 -64 -65 0
64 -59 -65 0
65 -59 -64 0
65 59 64 0
-6 65 0
-56 66 0
-67 66 0
56 67 -66 0
59 -66 -68 0
-59 66 -68 0
-59 -66 68 0
59 66 68 0
-7 68 0
56 69 0
67 69 0
-56 -67 -69 0
-59 69 -70 0
59 -69 -70 0
70 -69 -59 0
59 69 70 0
-8 -70 0
64 -67 -71 0
67 -64 -71 0
-64 -67 71 0
64 67 71 0
-4 -71 0
67 -72 -73 0
72 -67 -73 0
73 -67 -72 0
73 67 72 0
-6 73 0
-64 74 0
-75 74 0
64 75 -74 0
67 -74 -76 0
-67 74 -76 0
-67 -74 76 0
67 74 76 0
-7 76 0
64 77 0
75 77 0
-64 -75 -77 0
-67 77 -78 0
67 -77 -78 0
78 -77 -67 0
67 77 78 0
-8 -78 0
72 -75 -79 0
75 -72 -79 0
-72 -75 79 0
72 75 79 0
-4 -79 0
75 -80 -81 0
80 -75 -81 0
81 -75 -80 0
81 75 80 0
-6 81 0
-72 82 0
-83 82 0
72 83 -82 0
75 -82 -84 0
-75 82 -84 0
-75 -82 84 0
75 82 84 0
-7 84 0
72 85 0
83 85 0
-72 -83 -85 0
-75 85 -86 0
75 -85 -86 0
86 -85 -75 0
75 85 86 0
-8 -86 0
80 -83 -87 0
83 -80 -87 0
-80 -83 87 0
80 83 87 0
-4 -87 0
83 -88 -89 0
88 -83 -89 0
89 -83 -88 0
89 83 88 0
-6 89 0
-80 90 0
-91 90 0
80 91 -90 0
83 -90 -92 0
-83 90 -92 0
-83 -90 92 0
83 90 92 0
-7 92 0
80 93 0
91 93 0
-80 -91 -93 0
-83 93 -94 0
83 -93 -94 0
94 -93 -83 0
83 93 94 0
-8 -94 0
88 -91 -95 0
91 -88 -95 0
-88 -91 95 0
88 91 95 0
-4 -95 0
91 -96 -97 0
96 -91 -97 0
97 -91 -96 0
97 91 96 0
-6 97 0
-88 98 0
-99 98 0
88 99 -98 0
91 -98 -100 0
-91 98 -100 0
-91 -98 100 0
91 98 100 0
-7 100 0
88 101 0
99 101 0
-88 -99 -101 0
-91 101 -102 0
91 -101 -102 0
102 -101 -91 0
91 101 102 0
-8 -102 0
96 -99 -103 0
99 -96 -103 0
-96 -99 103 0
96 99 103 0
-4 -103 0
99 -104 -105 0
104 -99 -105 0
105 -99 -104 0
105 99 104 0
-6 105 0
-96 106 0
-107 106 0
96 107 -106 0
99 -106 -108 0
-99 106 -108 0
-99 -106 108 0
99 106 108 0
-7 108 0
96 109 0
107 109 0
-96 -107 -109 0
-99 109 -110 0
99 -109 -110 0
110 -109 -99 0
99 109 110 0
-8 -110 0
104 -107 -111 0
107 -104 -111 0
-104 -107 111 0
104 107 111 0
-4 -111 0
-72 107 -112 0
72 -107 -112 0
112 -107 -72 0
112 107 72 0
-6 112 0
-72 113 0
-80 113 0
-88 113 0
-96 113 0
-104 113 0
114 0
107 -113 -115 0
-107 113 -115 0
-107 -113 115 0
107 113 115 0
-7 115 0
72 116 0
80 116 0
88 116 0
96 116 0
104 116 0
-117 0
-107 116 -118 0
107 -116 -118 0
118 -116 -107 0
107 116 118 0
-8 -118 0
119 -120 -121 0
120 -119 -121 0
-119 -120 121 0
120 119 121 0
-4 -121 0
120 -122 -123 0
122 -120 -123 0
123 -120 -122 0
123 120 122 0
-6 123 0
-119 124 0
-125 124 0
119 125 -124 0
120 -124 -126 0
-120 124 -126 0
-120 -124 126 0
120 124 126 0
-7 126 0
119 127 0
125 127 0
-119 -125 -127 0
-120 127 -128 0
120 -127 -128 0
128 -127 -120 0
120 127 128 0
-8 -128 0
122 -125 -129 0
125 -122 -129 0
-122 -125 129 0
122 125 129 0
-4 -129 0
125 -130 -131 0
130 -125 -131 0
131 -125 -130 0
131 125 130 0
-6 131 0
-122 132 0
-133 132 0
122 133 -132 0
125 -132 -134 0
-125 132 -134 0
-125 -132 134 0
125 132 134 0
-7 134 0
122 135 0
133 135 0
-122 -133 -135 0
-125 135 -136 0
125 -135 -136 0
136 -135 -125 0
125 135 136 0
-8 -136 0
130 -133 -137 0
133 -130 -137 0
-130 -133 137 0
130 133 137 0
-4 -137 0
133 -138 -139 0
138 -133 -139 0
139 -133 -138 0
139 133 138 0
-6 139 0
-130 140 0
-141 140 0
130 141 -140 0
133 -140 -142 0
-133 140 -142 0
-133 -140 142 0
133 140 142 0
-7 142 0
130 143 0
141 143 0
-130 -141 -143 0
-133 143 -144 0
133 -143 -144 0
144 -143 -133 0
133 143 144 0
-8 -144 0
138 -141 -145 0
141 -138 -145 0
-138 -141 145 0
138 141 145 0
-4 -145 0
141 -146 -147 0
146 -141 -147 0
147 -141 -146 0
147 141 146 0
-6 147 0
-138 148 0
-149 148 0
138 149 -148 0
141 -148 -150 0
-141 148 -150 0
-141 -148 150 0
141 148 150 0
-7 150 0
138 151 0
149 151 0
-138 -149 -151 0
-141 151 -152 0
141 -151 -152 0
152 -151 -141 0
141 151 152 0
-8 -152 0
146 -149 -153 0
149 -146 -153 0
-146 -149 153 0
146 149 153 0
-4 -153 0
149 -154 -155 0
154 -149 -155 0
155 -149 -154 0
155 149 154 0
-6 155 0
-146 156 0
-157 156 0
146 157 -156 0
149 -156 -158 0
-149 156 -158 0
-149 -156 158 0
149 156 158 0
-7 158 0
146 159 0
157 159 0
-146 -157 -159 0
-149 159 -160 0
149 -159 -160 0
160 -159 -149 0
149 159 160 0
-8 -160 0
154 -157 -161 0
157 -154 -161 0
-154 -157 161 0
154 157 161 0
-4 -161 0
157 -162 -163 0
162 -157 -163 0
163 -157 -162 0
163 157 162 0
-6 163 0
-154 164 0
-165 164 0
154 165 -164 0
157 -164 -166 0
-157 164 -166 0
-157 -164 166 0
157 164 166 0
-7 166 0
154 167 0
165 167 0
-154 -165 -167 0
-157 167 -168 0
157 -167 -168 0
168 -167 -157 0
157 167 168 0
-8 -168 0
162 -165 -169 0
165 -162 -169 0
-162 -165 169 0
162 165 169 0
-4 -169 0
165 -170 -171 0
170 -165 -171 0
171 -165 -170 0
171 165 170 0
-6 171 0
-162 172 0
-173 172 0
162 173 -172 0
165 -172 -174 0
-165 172 -174 0
-165 -172 174 0
165 172 174 0
-7 174 0
162 175 0
173 175 0
-162 -173 -175 0
-165 175 -176 0
165 -175 -176 0
176 -175 -165 0
165 175 176 0
-8 -176 0
170 -173 -177 0
173 -170 -177 0
-170 -173 177 0
170 173 177 0
-4 -177 0
173 -178 -179 0
178 -173 -179 0
179 -173 -178 0
179 173 178 0
-6 179 0
-170 180 0
-181 180 0
170 181 -180 0
173 -180 -182 0
-173 180 -182 0
-173 -180 182 0
173 180 182 0
-7 182 0
170 183 0
181 183 0
-170 -181 -183 0
-173 183 -184 0
173 -183 -184 0
184 -183 -173 0
173 183 184 0
-8 -184 0
178 -181 -185 0
181 -178 -185 0
-178 -181 185 0
178 181 185 0
-4 -185 0
181 -186 -187 0
186 -181 -187 0
187 -181 -186 0
187 181 186 0
-6 187 0
-178 188 0
-189 188 0
178 189 -188 0
181 -188 -190 0
-181 188 -190 0
-181 -188 190 0
181 188 190 0
-7 190 0
178 191 0
189 191 0
-178 -189 -191 0
-181 191 -192 0
181 -191 -192 0
192 -191 -181 0
181 191 192 0
-8 -192 0
186 -189 -193 0
189 -186 -193 0
-186 -189 193 0
186 189 193 0
-4 -193 0
-162 189 -194 0
162 -189 -194 0
194 -189 -162 0
194 189 162 0
-6 194 0
-162 195 0
-170 195 0
-178 195 0
-186 195 0
162 170 178 186 -195 0
189 -195 -196 0
-189 195 -196 0
-189 -195 196 0
189 195 196 0
-7 196 0
162 197 0
170 197 0
178 197 0
186 197 0
-198 0
-189 197 -199 0
189 -197 -199 0
199 -197 -189 0
189 197 199 0
-8 -199 0
200 -201 -202 0
201 -200 -202 0
-200 -201 202 0
201 200 202 0
-4 -202 0
201 -203 -204 0
203 -201 -204 0
204 -201 -203 0
204 201 203 0
-6 204 0
-200 205 0
-206 205 0
200 206 -205 0
201 -205 -207 0
-201 205 -207 0
-201 -205 207 0
201 205 207 0
-7 207 0
200 208 0
206 208 0
-200 -206 -208 0
-201 208 -209 0
201 -208 -209 0
209 -208 -201 0
201 208 209 0
-8 -209 0
203 -206 -210 0
206 -203 -210 0
-203 -206 210 0
203 206 210 0
-4 -210 0
206 -211 -212 0
211 -206 -212 0
212 -206 -211 0
212 206 211 0
-6 212 0
-203 213 0
-214 213 0
203 214 -213 0
206 -213 -215 0
-206 213 -215 0
-206 -213 215 0
206 213 215 0
-7 215 0
203 216 0
214 216 0
-203 -214 -216 0
-206 216 -217 0
206 -216 -217 0
217 -216 -206 0
206 216 217 0
-8 -217 0
211 -214 -218 0
214 -211 -218 0
-211 -214 218 0
211 214 218 0
-4 -218 0
214 -219 -220 0
219 -214 -220 0
220 -214 -219 0
220 214 219 0
-6 220 0
-211 221 0
-222 221 0
211 222 -221 0
214 -221 -223 0
-214 221 -223 0
-214 -221 223 0
214 221 223 0
-7 223 0
211 224 0
222 224 0
-211 -222 -224 0
-214 224 -225 0
214 -224 -225 0
225 -224 -214 0
214 224 225 0
-8 -225 0
219 -222 -226 0
222 -219 -226 0
-219 -222 226 0
219 222 226 0
-4 -226 0
222 -227 -228 0
227 -222 -228 0
228 -222 -227 0
228 222 227 0
-6 228 0
-219 229 0
-230 229 0
219 230 -229 0
222 -229 -231 0
-222 229 -231 0
-222 -229 231 0
222 229 231 0
-7 231 0
219 232 0
230 232 0
-219 -230 -232 0
-222 232 -233 0
222 -232 -233 0
233 -232 -222 0
222 232 233 0
-8 -233 0
227 -230 -234 0
230 -227 -234 0
-227 -230 234 0
227 230 234 0
-4 -234 0
230 -235 -236 0
235 -230 -236 0
236 -230 -235 0
236 230 235 0
-6 236 0
-227 237 0
-238 237 0
227 238 -237 0
230 -237 -239 0
-230 237 -239 0
-230 -237 239 0
230 237 239 0
-7 239 0
227 240 0
238 240 0
-227 -238 -240 0
-230 240 -241 0
230 -240 -241 0
241 -240 -230 0
230 240 241 0
-8 -241 0
235 -238 -242 0
238 -235 -242 0
-235 -238 242 0
235 238 242 0
-4 -242 0
238 -243 -244 0
243 -238 -244 0
244 -238 -243 0
244 238 243 0
-6 244 0
-235 245 0
-246 245 0
235 246 -245 0
238 -245 -247 0
-238 245 -247 0
-238 -245 247 0
238 245 247 0
-7 247 0
235 248 0
246 248 0
-235 -246 -248 0
-238 248 -249 0
238 -248 -249 0
249 -248 -238 0
238 248 249 0
-8 -249 0
243 -246 -250 0
246 -243 -250 0
-243 -246 250 0
243 246 250 0
-4 -250 0
246 -251 -252 0
251 -246 -252 0
252 -246 -251 0
252 246 251 0
-6 252 0
-243 253 0
-254 253 0
243 254 -253 0
246 -253 -255 0
-246 253 -255 0
-246 -253 255 0
246 253 255 0
-7 255 0
243 256 0
254 256 0
-243 -254 -256 0
-246 256 -257 0
246 -256 -257 0
257 -256 -246 0
246 256 257 0
-8 -257 0
251 -254 -258 0
254 -251 -258 0
-251 -254 258 0
251 254 258 0
-4 -258 0
254 -259 -260 0
259 -254 -260 0
260 -254 -259 0
260 254 259 0
-6 260 0
-251 261 0
-262 261 0
251 262 -261 0
254 -261 -263 0
-254 261 -263 0
-254 -261 263 0
254 261 263 0
-7 263 0
251 264 0
262 264 0
-251 -262 -264 0
-254 264 -265 0
254 -264 -265 0
265 -264 -254 0
254 264 265 0
-8 -265 0
259 -262 -266 0
262 -259 -266 0
-259 -262 266 0
259 262 266 0
-4 -266 0
262 -267 -268 0
267 -262 -268 0
268 -262 -267 0
268 262 267 0
-6 268 0
-259 269 0
-270 269 0
259 270 -269 0
262 -269 -271 0
-262 269 -271 0
-262 -269 271 0
262 269 271 0
-7 271 0
259 272 0
270 272 0
-259 -270 -272 0
-262 272 -273 0
262 -272 -273 0
273 -272 -262 0
262 272 273 0
-8 -273 0
267 -270 -274 0
270 -267 -274 0
-267 -270 274 0
267 270 274 0
-4 -274 0
270 -275 -276 0
275 -270 -276 0
276 -270 -275 0
276 270 275 0
-6 276 0
-267 277 0
-278 277 0
267 278 -277 0
270 -277 -279 0
-270 277 -279 0
-270 -277 279 0
270 277 279 0
-7 279 0
267 280 0
278 280 0
-267 -278 -280 0
-270 280 -281 0
270 -280 -281 0
281 -280 -270 0
270 280 281 0
-8 -281 0
275 -278 -282 0
278 -275 -282 0
-275 -278 282 0
275 278 282 0
-4 -282 0
-235 278 -283 0
235 -278 -283 0
283 -278 -235 0
283 278 235 0
-6 283 0
-235 284 0
-243 284 0
-251 284 0
-259 284 0
-267 284 0
-275 284 0
285 0
278 -284 -286 0
-278 284 -286 0
-278 -284 286 0
278 284 286 0
-7 286 0
235 287 0
243 287 0
251 287 0
259 287 0
267 287 0
275 287 0
-288 0
-278 287 -289 0
278 -287 -289 0
289 -287 -278 0
278 287 289 0
-8 -289 0
290 -291 -292 0
291 -290 -292 0
-290 -291 292 0
291 290 292 0
-4 -292 0
291 -293 -294 0
293 -291 -294 0
294 -291 -293 0
294 291 293 0
-6 294 0
-290 295 0
-296 295 0
290 296 -295 0
291 -295 -297 0
-291 295 -297 0
-291 -295 297 0
291 295 297 0
-7 297 0
290 298 0
296 298 0
-290 -296 -298 0
-291 298 -299 0
291 -298 -299 0
299 -298 -291 0
291 298 299 0
-8 -299 0
293 -296 -300 0
296 -293 -300 0
-293 -296 300 0
293 296 300 0
-4 -300 0
296 -301 -302 0
301 -296 -302 0
302 -296 -301 0
302 296 301 0
-6 302 0
-293 303 0
-304 303 0
293 304 -303 0
296 -303 -305 0
-296 303 -305 0
-296 -303 305 0
296 303 305 0
-7 305 0
293 306 0
304 306 0
-293 -304 -306 0
-296 306 -307 0
296 -306 -307 0
307 -306 -296 0
296 306 307 0
-8 -307 0
301 -304 -308 0
304 -301 -308 0
-301 -304 308 0
301 304 308 0
-4 -308 0
304 -309 -310 0
309 -304 -310 0
310 -304 -309 0
310 304 309 0
-6 310 0
-301 311 0
-312 311 0
301 312 -311 0
304 -311 -313 0
-304 311 -313 0
-304 -311 313 0
304 311 313 0
-7 313 0
301 314 0
312 314 0
-301 -312 -314 0
-304 314 -315 0
304 -314 -315 0
315 -314 -304 0
304 314 315 0
-8 -315 0
309 -312 -316 0
312 -309 -316 0
-309 -312 316 0
309 312 316 0
-4 -316 0
312 -317 -318 0
317 -312 -318 0
318 -312 -317 0
318 312 317 0
-6 318 0
-309 319 0
-320 319 0
309 320 -319 0
312 -319 -321 0
-312 319 -321 0
-312 -319 321 0
312 319 321 0
-7 321 0
309 322 0
320 322 0
-309 -320 -322 0
-312 322 -323 0
312 -322 -323 0
323 -322 -312 0
312 322 323 0
-8 -323 0
317 -320 -324 0
320 -317 -324 0
-317 -320 324 0
317 320 324 0
-4 -324 0
320 -325 -326 0
325 -320 -326 0
326 -320 -325 0
326 320 325 0
-6 326 0
-317 327 0
-328 327 0
317 328 -327 0
320 -327 -329 0
-320 327 -329 0
-320 -327 329 0
320 327 329 0
-7 329 0
317 330 0
328 330 0
-317 -328 -330 0
-320 330 -331 0
320 -330 -331 0
331 -330 -320 0
320 330 331 0
-8 -331 0
325 -328 -332 0
328 -325 -332 0
-325 -328 332 0
325 328 332 0
-4 -332 0
328 -333 -334 0
333 -328 -334 0
334 -328 -333 0
334 328 333 0
-6 334 0
-325 335 0
-336 335 0
325 336 -335 0
328 -335 -337 0
-328 335 -337 0
-328 -335 337 0
328 335 337 0
-7 337 0
325 338 0
336 338 0
-325 -336 -338 0
-328 338 -339 0
328 -338 -339 0
339 -338 -328 0
328 338 339 0
-8 -339 0
333 -336 -340 0
336 -333 -340 0
-333 -336 340 0
333 336 340 0
-4 -340 0
336 -341 -342 0
341 -336 -342 0
342 -336 -341 0
342 336 341 0
-6 342 0
-333 343 0
-344 343 0
333 344 -343 0
336 -343 -345 0
-336 343 -345 0
-336 -343 345 0
336 343 345 0
-7 345 0
333 346 0
344 346 0
-333 -344 -346 0
-336 346 -347 0
336 -346 -347 0
347 -346 -336 0
336 346 347 0
-8 -347 0
341 -344 -348 0
344 -341 -348 0
-341 -344 348 0
341 344 348 0
-4 -348 0
344 -349 -350 0
349 -344 -350 0
350 -344 -349 0
350 344 349 0
-6 350 0
-341 351 0
-352 351 0
341 352 -351 0
344 -351 -353 0
-344 351 -353 0
-344 -351 353 0
344 351 353 0
-7 353 0
341 354 0
352 354 0
-341 -352 -354 0
-344 354 -355 0
344 -354 -355 0
355 -354 -344 0
344 354 355 0
-8 -355 0
349 -352 -356 0
352 -349 -356 0
-349 -352 356 0
349 352 356 0
-4 -356 0
-317 352 -357 0
317 -352 -357 0
357 -352 -317 0
357 352 317 0
-6 357 0
-317 358 0
-325 358 0
-333 358 0
-341 358 0
-349 358 0
359 0
352 -358 -360 0
-352 358 -360 0
-352 -358 360 0
352 358 360 0
-7 360 0
317 361 0
325 361 0
333 361 0
341 361 0
349 361 0
-362 0
-352 361 -363 0
352 -361 -363 0
363 -361 -352 0
352 361 363 0
-8 -363 0
364 -365 -366 0
365 -364 -366 0
-364 -365 366 0
365 364 366 0
-4 -366 0
365 -367 -368 0
367 -365 -368 0
368 -365 -367 0
368 365 367 0
-6 368 0
-364 369 0
-370 369 0
364 370 -369 0
365 -369 -371 0
-365 369 -371 0
-365 -369 371 0
365 369 371 0
-7 371 0
364 372 0
370 372 0
-364 -370 -372 0
-365 372 -373 0
365 -372 -373 0
373 -372 -365 0
365 372 373 0
-8 -373 0
367 -370 -374 0
370 -367 -374 0
-367 -370 374 0
367 370 374 0
-4 -374 0
370 -375 -376 0
375 -370 -376 0
376 -370 -375 0
376 370 375 0
-6 376 0
-367 377 0
-378 377 0
367 378 -377 0
370 -377 -379 0
-370 377 -379 0
-370 -377 379 0
370 377 379 0
-7 379 0
367 380 0
378 380 0
-367 -378 -380 0
-370 380 -381 0
370 -380 -381 0
381 -380 -370 0
370 380 381 0
-8 -381 0
375 -378 -382 0
378 -375 -382 0
-375 -378 382 0
375 378 382 0
-4 -382 0
378 -383 -384 0
383 -378 -384 0
384 -378 -383 0
384 378 383 0
-6 384 0
-375 385 0
-386 385 0
375 386 -385 0
378 -385 -387 0
-378 385 -387 0
-378 -385 387 0
378 385 387 0
-7 387 0
375 388 0
386 388 0
-375 -386 -388 0
-378 388 -389 0
378 -388 -389 0
389 -388 -378 0
378 388 389 0
-8 -389 0
383 -386 -390 0
386 -383 -390 0
-383 -386 390 0
383 386 390 0
-4 -390 0
386 -391 -392 0
391 -386 -392 0
392 -386 -391 0
392 386 391 0
-6 392 0
-383 393 0
-394 393 0
383 394 -393 0
386 -393 -395 0
-386 393 -395 0
-386 -393 395 0
386 393 395 0
-7 395 0
383 396 0
394 396 0
-383 -394 -396 0
-386 396 -397 0
386 -396 -397 0
397 -396 -386 0
386 396 397 0
-8 -397 0
391 -394 -398 0
394 -391 -398 0
-391 -394 398 0
391 394 398 0
-4 -398 0
394 -399 -400 0
399 -394 -400 0
400 -394 -399 0
400 394 399 0
-6 400 0
-391 401 0
-402 401 0
391 402 -401 0
394 -401 -403 0
-394 401 -403 0
-394 -401 403 0
394 401 403 0
-7 403 0
391 404 0
402 404 0
-391 -402 -404 0
-394 404 -405 0
394 -404 -405 0
405 -404 -394 0
394 404 405 0
-8 -405 0
399 -402 -406 0
402 -399 -406 0
-399 -402 406 0
399 402 406 0
-4 -406 0
-367 402 -407 0
367 -402 -407 0
407 -402 -367 0
407 402 367 0
-6 407 0
-367 408 0
-375 408 0
-383 408 0
-391 408 0
-399 408 0
409 0
402 -408 -410 0
-402 408 -410 0
-402 -408 410 0
402 408 410 0
-7 410 0
367 411 0
375 411 0
383 411 0
391 411 0
399 411 0
-412 0
-402 411 -413 0
402 -411 -413 0
413 -411 -402 0
402 411 413 0
-8 -413 0
414 -415 -416 0
415 -414 -416 0
-414 -415 416 0
415 414 416 0
-4 -416 0
415 -417 -418 0
417 -415 -418 0
418 -415 -417 0
418 415 417 0
-6 418 0
-414 419 0
-420 419 0
414 420 -419 0
415 -419 -421 0
-415 419 -421 0
-415 -419 421 0
415 419 421 0
-7 421 0
414 422 0
420 422 0
-414 -420 -422 0
-415 422 -423 0
415 -422 -423 0
423 -422 -415 0
415 422 423 0
-8 -423 0
417 -420 -424 0
420 -417 -424 0
-417 -420 424 0
417 420 424 0
-4 -424 0
420 -425 -426 0
425 -420 -426 0
426 -420 -425 0
426 420 425 0
-6 426 0
-417 427 0
-428 427 0
417 428 -427 0
420 -427 -429 0
-420 427 -429 0
-420 -427 429 0
420 427 429 0
-7 429 0
417 430 0
428 430 0
-417 -428 -430 0
-420 430 -431 0
420 -430 -431 0
431 -430 -420 0
420 430 431 0
-8 -431 0
425 -428 -432 0
428 -425 -432 0
-425 -428 432 0
425 428 432 0
-4 -432 0
428 -433 -434 0
433 -428 -434 0
434 -428 -433 0
434 428 433 0
-6 434 0
-425 435 0
-436 435 0
425 436 -435 0
428 -435 -437 0
-428 435 -437 0
-428 -435 437 0
428 435 437 0
-7 437 0
425 438 0
436 438 0
-425 -436 -438 0
-428 438 -439 0
428 -438 -439 0
439 -438 -428 0
428 438 439 0
-8 -439 0
433 -436 -440 0
436 -433 -440 0
-433 -436 440 0
433 436 440 0
-4 -440 0
436 -441 -442 0
441 -436 -442 0
442 -436 -441 0
442 436 441 0
-6 442 0
-433 443 0
-444 443 0
433 444 -443 0
436 -443 -445 0
-436 443 -445 0
-436 -443 445 0
436 443 445 0
-7 445 0
433 446 0
444 446 0
-433 -444 -446 0
-436 446 -447 0
436 -446 -447 0
447 -446 -436 0
436 446 447 0
-8 -447 0
441 -444 -448 0
444 -441 -448 0
-441 -444 448 0
441 444 448 0
-4 -448 0
444 -449 -450 0
449 -444 -450 0
450 -444 -449 0
450 444 449 0
-6 450 0
-441 451 0
-452 451 0
441 452 -451 0
444 -451 -453 0
-444 451 -453 0
-444 -451 453 0
444 451 453 0
-7 453 0
441 454 0
452 454 0
-441 -452 -454 0
-444 454 -455 0
444 -454 -455 0
455 -454 -444 0
444 454 455 0
-8 -455 0
449 -452 -456 0
452 -449 -456 0
-449 -452 456 0
449 452 456 0
-4 -456 0
452 -457 -458 0
457 -452 -458 0
458 -452 -457 0
458 452 457 0
-6 458 0
-449 459 0
-460 459 0
449 460 -459 0
452 -459 -461 0
-452 459 -461 0
-452 -459 461 0
452 459 461 0
-7 461 0
449 462 0
460 462 0
-449 -460 -462 0
-452 462 -463 0
452 -462 -463 0
463 -462 -452 0
452 462 463 0
-8 -463 0
457 -460 -464 0
460 -457 -464 0
-457 -460 464 0
457 460 464 0
-4 -464 0
460 -465 -466 0
465 -460 -466 0
466 -460 -465 0
466 460 465 0
-6 466 0
-457 467 0
-468 467 0
457 468 -467 0
460 -467 -469 0
-460 467 -469 0
-460 -467 469 0
460 467 469 0
-7 469 0
457 470 0
468 470 0
-457 -468 -470 0
-460 470 -471 0
460 -470 -471 0
471 -470 -460 0
460 470 471 0
-8 -471 0
465 -468 -472 0
468 -465 -472 0
-465 -468 472 0
465 468 472 0
-4 -472 0
468 -473 -474 0
473 -468 -474 0
474 -468 -473 0
474 468 473 0
-6 474 0
-465 475 0
-476 475 0
465 476 -475 0
468 -475 -477 0
-468 475 -477 0
-468 -475 477 0
468 475 477 0
-7 477 0
465 478 0
476 478 0
-465 -476 -478 0
-468 478 -479 0
468 -478 -479 0
479 -478 -468 0
468 478 479 0
-8 -479 0
473 -476 -480 0
476 -473 -480 0
-473 -476 480 0
473 476 480 0
-4 -480 0
476 -481 -482 0
481 -476 -482 0
482 -476 -481 0
482 476 481 0
-6 482 0
-473 483 0
-484 483 0
473 484 -483 0
476 -483 -485 0
-476 483 -485 0
-476 -483 485 0
476 483 485 0
-7 485 0
473 486 0
484 486 0
-473 -484 -486 0
-476 486 -487 0
476 -486 -487 0
487 -486 -476 0
476 486 487 0
-8 -487 0
481 -484 -488 0
484 -481 -488 0
-481 -484 488 0
481 484 488 0
-4 -488 0
484 -489 -490 0
489 -484 -490 0
490 -484 -489 0
490 484 489 0
-6 490 0
-481 491 0
-492 491 0
481 492 -491 0
484 -491 -493 0
-484 491 -493 0
-484 -491 493 0
484 491 493 0
-7 493 0
481 494 0
492 494 0
-481 -492 -494 0
-484 494 -495 0
484 -494 -495 0
495 -494 -484 0
484 494 495 0
-8 -495 0
489 -492 -496 0
492 -489 -496 0
-489 -492 496 0
489 492 496 0
-4 -496 0
492 -497 -498 0
497 -492 -498 0
498 -492 -497 0
498 492 497 0
-6 498 0
-489 499 0
-500 499 0
489 500 -499 0
492 -499 -501 0
-492 499 -501 0
-492 -499 501 0
492 499 501 0
-7 501 0
489 502 0
500 502 0
-489 -500 -502 0
-492 502 -503 0
492 -502 -503 0
503 -502 -492 0
492 502 503 0
-8 -503 0
497 -500 -504 0
500 -497 -504 0
-497 -500 504 0
497 500 504 0
-4 -504 0
-457 500 -505 0
457 -500 -505 0
505 -500 -457 0
505 500 457 0
-6 505 0
-457 506 0
-465 506 0
-473 506 0
-481 506 0
-489 506 0
-497 506 0
507 0
500 -506 -508 0
-500 506 -508 0
-500 -506 508 0
500 506 508 0
-7 508 0
457 509 0
465 509 0
473 509 0
481 509 0
489 509 0
497 509 0
-510 0
-500 509 -511 0
500 -509 -511 0
511 -509 -500 0
500 509 511 0
-8 -511 0
512 -513 -514 0
513 -512 -514 0
-512 -513 514 0
513 512 514 0
-4 -514 0
513 -515 -516 0
515 -513 -516 0
516 -513 -515 0
516 513 515 0
-6 516 0
-512 517 0
-518 517 0
512 518 -517 0
513 -517 -519 0
-513 517 -519 0
-513 -517 519 0
513 517 519 0
-7 519 0
512 520 0
518 520 0
-512 -518 -520 0
-513 520 -521 0
513 -520 -521 0
521 -520 -513 0
513 520 521 0
-8 -521 0
515 -518 -522 0
518 -515 -522 0
-515 -518 522 0
515 518 522 0
-4 -522 0
518 -523 -524 0
523 -518 -524 0
524 -518 -523 0
524 518 523 0
-6 524 0
-515 525 0
-526 525 0
515 526 -525 0
518 -525 -527 0
-518 525 -527 0
-518 -525 527 0
518 525 527 0
-7 527 0
515 528 0
526 528 0
-515 -526 -528 0
-518 528 -529 0
518 -528 -529 0
529 -528 -518 0
518 528 529 0
-8 -529 0
523 -526 -530 0
526 -523 -530 0
-523 -526 530 0
523 526 530 0
-4 -530 0
526 -531 -532 0
531 -526 -532 0
532 -526 -531 0
532 526 531 0
-6 532 0
-523 533 0
-534 533 0
523 534 -533 0
526 -533 -535 0
-526 533 -535 0
-526 -533 535 0
526 533 535 0
-7 535 0
523 536 0
534 536 0
-523 -534 -536 0
-526 536 -537 0
526 -536 -537 0
537 -536 -526 0
526 536 537 0
-8 -537 0
531 -534 -538 0
534 -531 -538 0
-531 -534 538 0
531 534 538 0
-4 -538 0
534 -539 -540 0
539 -534 -540 0
540 -534 -539 0
540 534 539 0
-6 540 0
-531 541 0
-542 541 0
531 542 -541 0
534 -541 -543 0
-534 541 -543 0
-534 -541 543 0
534 541 543 0
-7 543 0
531 544 0
542 544 0
-531 -542 -544 0
-534 544 -545 0
534 -544 -545 0
545 -544 -534 0
534 544 545 0
-8 -545 0
539 -542 -546 0
542 -539 -546 0
-539 -542 546 0
539 542 546 0
-4 -546 0
542 -547 -548 0
547 -542 -548 0
548 -542 -547 0
548 542 547 0
-6 548 0
-539 549 0
-550 549 0
539 550 -549 0
542 -549 -551 0
-542 549 -551 0
-542 -549 551 0
542 549 551 0
-7 551 0
539 552 0
550 552 0
-539 -550 -552 0
-542 552 -553 0
542 -552 -553 0
553 -552 -542 0
542 552 553 0
-8 -553 0
547 -550 -554 0
550 -547 -554 0
-547 -550 554 0
547 550 554 0
-4 -554 0
550 -555 -556 0
555 -550 -556 0
556 -550 -555 0
556 550 555 0
-6 556 0
-547 557 0
-558 557 0
547 558 -557 0
550 -557 -559 0
-550 557 -559 0
-550 -557 559 0
550 557 559 0
-7 559 0
547 560 0
558 560 0
-547 -558 -560 0
-550 560 -561 0
550 -560 -561 0
561 -560 -550 0
550 560 561 0
-8 -561 0
555 -558 -562 0
558 -555 -562 0
-555 -558 562 0
555 558 562 0
-4 -562 0
-547 558 -563 0
547 -558 -563 0
563 -558 -547 0
563 558 547 0
-6 563 0
-547 564 0
-555 564 0
547 555 -564 0
558 -564 -565 0
-558 564 -565 0
-558 -564 565 0
558 564 565 0
-7 565 0
547 566 0
555 566 0
-547 -555 -566 0
-558 566 -567 0
558 -566 -567 0
567 -566 -558 0
558 566 567 0
-8 -567 0
568 -569 -570 0
569 -568 -570 0
-568 -569 570 0
569 568 570 0
-4 -570 0
569 -571 -572 0
571 -569 -572 0
572 -569 -571 0
572 569 571 0
-6 572 0
-568 573 0
-574 573 0
568 574 -573 0
569 -573 -575 0
-569 573 -575 0
-569 -573 575 0
569 573 575 0
-7 575 0
568 576 0
574 576 0
-568 -574 -576 0
-569 576 -577 0
569 -576 -577 0
577 -576 -569 0
569 576 577 0
-8 -577 0
571 -574 -578 0
574 -571 -578 0
-571 -574 578 0
571 574 578 0
-4 -578 0
574 -579 -580 0
579 -574 -580 0
580 -574 -579 0
580 574 579 0
-6 580 0
-571 581 0
-582 581 0
571 582 -581 0
574 -581 -583 0
-574 581 -583 0
-574 -581 583 0
574 581 583 0
-7 583 0
571 584 0
582 584 0
-571 -582 -584 0
-574 584 -585 0
574 -584 -585 0
585 -584 -574 0
574 584 585 0
-8 -585 0
579 -582 -586 0
582 -579 -586 0
-579 -582 586 0
579 582 586 0
-4 -586 0
582 -587 -588 0
587 -582 -588 0
588 -582 -587 0
588 582 587 0
-6 588 0
-579 589 0
-590 589 0
579 590 -589 0
582 -589 -591 0
-582 589 -591 0
-582 -589 591 0
582 589 591 0
-7 591 0
579 592 0
590 592 0
-579 -590 -592 0
-582 592 -593 0
582 -592 -593 0
593 -592 -582 0
582 592 593 0
-8 -593 0
587 -590 -594 0
590 -587 -594 0
-587 -590 594 0
587 590 594 0
-4 -594 0
590 -595 -596 0
595 -590 -596 0
596 -590 -595 0
596 590 595 0
-6 596 0
-587 597 0
-598 597 0
587 598 -597 0
590 -597 -599 0
-590 597 -599 0
-590 -597 599 0
590 597 599 0
-7 599 0
587 600 0
598 600 0
-587 -598 -600 0
-590 600 -601 0
590 -600 -601 0
601 -600 -590 0
590 600 601 0
-8 -601 0
595 -598 -602 0
598 -595 -602 0
-595 -598 602 0
595 598 602 0
-4 -602 0
598 -603 -604 0
603 -598 -604 0
604 -598 -603 0
604 598 603 0
-6 604 0
-595 605 0
-606 605 0
595 606 -605 0
598 -605 -607 0
-598 605 -607 0
-598 -605 607 0
598 605 607 0
-7 607 0
595 608 0
606 608 0
-595 -606 -608 0
-598 608 -609 0
598 -608 -609 0
609 -608 -598 0
598 608 609 0
-8 -609 0
603 -606 -610 0
606 -603 -610 0
-603 -606 610 0
603 606 610 0
-4 -610 0
606 -611 -612 0
611 -606 -612 0
612 -606 -611 0
612 606 611 0
-6 612 0
-603 613 0
-614 613 0
603 614 -613 0
606 -613 -615 0
-606 613 -615 0
-606 -613 615 0
606 613 615 0
-7 615 0
603 616 0
614 616 0
-603 -614 -616 0
-606 616 -617 0
606 -616 -617 0
617 -616 -606 0
606 616 617 0
-8 -617 0
611 -614 -618 0
614 -611 -618 0
-611 -614 618 0
611 614 618 0
-4 -618 0
614 -619 -620 0
619 -614 -620 0
620 -614 -619 0
620 614 619 0
-6 620 0
-611 621 0
-622 621 0
611 622 -621 0
614 -621 -623 0
-614 621 -623 0
-614 -621 623 0
614 621 623 0
-7 623 0
611 624 0
622 624 0
-611 -622 -624 0
-614 624 -625 0
614 -624 -625 0
625 -624 -614 0
614 624 625 0
-8 -625 0
619 -622 -626 0
622 -619 -626 0
-619 -622 626 0
619 622 626 0
-4 -626 0
622 -627 -628 0
627 -622 -628 0
628 -622 -627 0
628 622 627 0
-6 628 0
-619 629 0
-630 629 0
619 630 -629 0
622 -629 -631 0
-622 629 -631 0
-622 -629 631 0
622 629 631 0
-7 631 0
619 632 0
630 632 0
-619 -630 -632 0
-622 632 -633 0
622 -632 -633 0
633 -632 -622 0
622 632 633 0
-8 -633 0
627 -630 -634 0
630 -627 -634 0
-627 -630 634 0
627 630 634 0
-4 -634 0
630 -635 -636 0
635 -630 -636 0
636 -630 -635 0
636 630 635 0
-6 636 0
-627 637 0
-638 637 0
627 638 -637 0
630 -637 -639 0
-630 637 -639 0
-630 -637 639 0
630 637 639 0
-7 639 0
627 640 0
638 640 0
-627 -638 -640 0
-630 640 -641 0
630 -640 -641 0
641 -640 -630 0
630 640 641 0
-8 -641 0
635 -638 -642 0
638 -635 -642 0
-635 -638 642 0
635 638 642 0
-4 -642 0
638 -643 -644 0
643 -638 -644 0
644 -638 -643 0
644 638 643 0
-6 644 0
-635 645 0
-646 645 0
635 646 -645 0
638 -645 -647 0
-638 645 -647 0
-638 -645 647 0
638 645 647 0
-7 647 0
635 648 0
646 648 0
-635 -646 -648 0
-638 648 -649 0
638 -648 -649 0
649 -648 -638 0
638 648 649 0
-8 -649 0
643 -646 -650 0
646 -643 -650 0
-643 -646 650 0
643 646 650 0
-4 -650 0
646 -651 -652 0
651 -646 -652 0
652 -646 -651 0
652 646 651 0
-6 652 0
-643 653 0
-654 653 0
643 654 -653 0
646 -653 -655 0
-646 653 -655 0
-646 -653 655 0
646 653 655 0
-7 655 0
643 656 0
654 656 0
-643 -654 -656 0
-646 656 -657 0
646 -656 -657 0
657 -656 -646 0
646 656 657 0
-8 -657 0
651 -654 -658 0
654 -651 -658 0
-651 -654 658 0
651 654 658 0
-4 -658 0
-611 654 -659 0
611 -654 -659 0
659 -654 -611 0
659 654 611 0
-6 659 0
-611 660 0
-619 660 0
-627 660 0
-635 660 0
-643 660 0
-651 660 0
661 0
654 -660 -662 0
-654 660 -662 0
-654 -660 662 0
654 660 662 0
-7 662 0
611 663 0
619 663 0
627 663 0
635 663 0
643 663 0
651 663 0
-664 0
-654 663 -665 0
654 -663 -665 0
665 -663 -654 0
654 663 665 0
-8 -665 0
666 -667 -668 0
667 -666 -668 0
-666 -667 668 0
667 666 668 0
-4 -668 0
667 -669 -670 0
669 -667 -670 0
670 -667 -669 0
670 667 669 0
-6 670 0
-666 671 0
-672 671 0
666 672 -671 0
667 -671 -673 0
-667 671 -673 0
-667 -671 673 0
667 671 673 0
-7 673 0
666 674 0
672 674 0
-666 -672 -674 0
-667 674 -675 0
667 -674 -675 0
675 -674 -667 0
667 674 675 0
-8 -675 0
669 -672 -676 0
672 -669 -676 0
-669 -672 676 0
669 672 676 0
-4 -676 0
672 -677 -678 0
677 -672 -678 0
678 -672 -677 0
678 672 677 0
-6 678 0
-669 679 0
-680 679 0
669 680 -679 0
672 -679 -681 0
-672 679 -681 0
-672 -679 681 0
672 679 681 0
-7 681 0
669 682 0
680 682 0
-669 -680 -682 0
-672 682 -683 0
672 -682 -683 0
683 -682 -672 0
672 682 683 0
-8 -683 0
677 -680 -684 0
680 -677 -684 0
-677 -680 684 0
677 680 684 0
-4 -684 0
680 -685 -686 0
685 -680 -686 0
686 -680 -685 0
686 680 685 0
-6 686 0
-677 687 0
-688 687 0
677 688 -687 0
680 -687 -689 0
-680 687 -689 0
-680 -687 689 0
680 687 689 0
-7 689 0
677 690 0
688 690 0
-677 -688 -690 0
-680 690 -691 0
680 -690 -691 0
691 -690 -680 0
680 690 691 0
-8 -691 0
685 -688 -692 0
688 -685 -692 0
-685 -688 692 0
685 688 692 0
-4 -692 0
688 -693 -694 0
693 -688 -694 0
694 -688 -693 0
694 688 693 0
-6 694 0
-685 695 0
-696 695 0
685 696 -695 0
688 -695 -697 0
-688 695 -697 0
-688 -695 697 0
688 695 697 0
-7 697 0
685 698 0
696 698 0
-685 -696 -698 0
-688 698 -699 0
688 -698 -699 0
699 -698 -688 0
688 698 699 0
-8 -699 0
693 -696 -700 0
696 -693 -700 0
-693 -696 700 0
693 696 700 0
-4 -700 0
696 -701 -702 0
701 -696 -702 0
702 -696 -701 0
702 696 701 0
-6 702 0
-693 703 0
-704 703 0
693 704 -703 0
696 -703 -705 0
-696 703 -705 0
-696 -703 705 0
696 703 705 0
-7 705 0
693 706 0
704 706 0
-693 -704 -706 0
-696 706 -707 0
696 -706 -707 0
707 -706 -696 0
696 706 707 0
-8 -707 0
701 -704 -708 0
704 -701 -708 0
-701 -704 708 0
701 704 708 0
-4 -708 0
704 -709 -710 0
709 -704 -710 0
710 -704 -709 0
710 704 709 0
-6 710 0
-701 711 0
-712 711 0
701 712 -711 0
704 -711 -713 0
-704 711 -713 0
-704 -711 713 0
704 711 713 0
-7 713 0
701 714 0
712 714 0
-701 -712 -714 0
-704 714 -715 0
704 -714 -715 0
715 -714 -704 0
704 714 715 0
-8 -715 0
709 -712 -716 0
712 -709 -716 0
-709 -712 716 0
709 712 716 0
-4 -716 0
712 -717 -718 0
717 -712 -718 0
718 -712 -717 0
718 712 717 0
-6 718 0
-709 719 0
-720 719 0
709 720 -719 0
712 -719 -721 0
-712 719 -721 0
-712 -719 721 0
712 719 721 0
-7 721 0
709 722 0
720 722 0
-709 -720 -722 0
-712 722 -723 0
712 -722 -723 0
723 -722 -712 0
712 722 723 0
-8 -723 0
717 -720 -724 0
720 -717 -724 0
-717 -720 724 0
717 720 724 0
-4 -724 0
-693 720 -725 0
693 -720 -725 0
725 -720 -693 0
725 720 693 0
-6 725 0
-693 726 0
-701 726 0
-709 726 0
-717 726 0
693 701 709 717 -726 0
720 -726 -727 0
-720 726 -727 0
-720 -726 727 0
720 726 727 0
-7 727 0
693 728 0
701 728 0
709 728 0
717 728 0
-729 0
-720 728 -730 0
720 -728 -730 0
730 -728 -720 0
720 728 730 0
-8 -730 0
731 -732 -733 0
732 -731 -733 0
-731 -732 733 0
732 731 733 0
-4 -733 0
732 -734 -735 0
734 -732 -735 0
735 -732 -734 0
735 732 734 0
-6 735 0
-731 736 0
-737 736 0
731 737 -736 0
732 -736 -738 0
-732 736 -738 0
-732 -736 738 0
732 736 738 0
-7 738 0
731 739 0
737 739 0
-731 -737 -739 0
-732 739 -740 0
732 -739 -740 0
740 -739 -732 0
732 739 740 0
-8 -740 0
734 -737 -741 0
737 -734 -741 0
-734 -737 741 0
734 737 741 0
-4 -741 0
737 -742 -743 0
742 -737 -743 0
743 -737 -742 0
743 737 742 0
-6 743 0
-734 744 0
-745 744 0
734 745 -744 0
737 -744 -746 0
-737 744 -746 0
-737 -744 746 0
737 744 746 0
-7 746 0
734 747 0
745 747 0
-734 -745 -747 0
-737 747 -748 0
737 -747 -748 0
748 -747 -737 0
737 747 748 0
-8 -748 0
742 -745 -749 0
745 -742 -749 0
-742 -745 749 0
742 745 749 0
-4 -749 0
745 -750 -751 0
750 -745 -751 0
751 -745 -750 0
751 745 750 0
-6 751 0
-742 752 0
-753 752 0
742 753 -752 0
745 -752 -754 0
-745 752 -754 0
-745 -752 754 0
745 752 754 0
-7 754 0
742 755 0
753 755 0
-742 -753 -755 0
-745 755 -756 0
745 -755 -756 0
756 -755 -745 0
745 755 756 0
-8 -756 0
750 -753 -757 0
753 -750 -757 0
-750 -753 757 0
750 753 757 0
-4 -757 0
753 -758 -759 0
758 -753 -759 0
759 -753 -758 0
759 753 758 0
-6 759 0
-750 760 0
-761 760 0
750 761 -760 0
753 -760 -762 0
-753 760 -762 0
-753 -760 762 0
753 760 762 0
-7 762 0
750 763 0
761 763 0
-750 -761 -763 0
-753 763 -764 0
753 -763 -764 0
764 -763 -753 0
753 763 764 0
-8 -764 0
758 -761 -765 0
761 -758 -765 0
-758 -761 765 0
758 761 765 0
-4 -765 0
761 -766 -767 0
766 -761 -767 0
767 -761 -766 0
767 761 766 0
-6 767 0
-758 768 0
-769 768 0
758 769 -768 0
761 -768 -770 0
-761 768 -770 0
-761 -768 770 0
761 768 770 0
-7 770 0
758 771 0
769 771 0
-758 -769 -771 0
-761 771 -772 0
761 -771 -772 0
772 -771 -761 0
761 771 772 0
-8 -772 0
766 -769 -773 0
769 -766 -773 0
-766 -769 773 0
766 769 773 0
-4 -773 0
769 -774 -775 0
774 -769 -775 0
775 -769 -774 0
775 769 774 0
-6 775 0
-766 776 0
-777 776 0
766 777 -776 0
769 -776 -778 0
-769 776 -778 0
-769 -776 778 0
769 776 778 0
-7 778 0
766 779 0
777 779 0
-766 -777 -779 0
-769 779 -780 0
769 -779 -780 0
780 -779 -769 0
769 779 780 0
-8 -780 0
774 -777 -781 0
777 -774 -781 0
-774 -777 781 0
774 777 781 0
-4 -781 0
777 -782 -783 0
782 -777 -783 0
783 -777 -782 0
783 777 782 0
-6 783 0
-774 784 0
-785 784 0
774 785 -784 0
777 -784 -786 0
-777 784 -786 0
-777 -784 786 0
777 784 786 0
-7 786 0
774 787 0
785 787 0
-774 -785 -787 0
-777 787 -788 0
777 -787 -788 0
788 -787 -777 0
777 787 788 0
-8 -788 0
782 -785 -789 0
785 -782 -789 0
-782 -785 789 0
782 785 789 0
-4 -789 0
785 -790 -791 0
790 -785 -791 0
791 -785 -790 0
791 785 790 0
-6 791 0
-782 792 0
-793 792 0
782 793 -792 0
785 -792 -794 0
-785 792 -794 0
-785 -792 794 0
785 792 794 0
-7 794 0
782 795 0
793 795 0
-782 -793 -795 0
-785 795 -796 0
785 -795 -796 0
796 -795 -785 0
785 795 796 0
-8 -796 0
790 -793 -797 0
793 -790 -797 0
-790 -793 797 0
790 793 797 0
-4 -797 0
-758 793 -798 0
758 -793 -798 0
798 -793 -758 0
798 793 758 0
-6 798 0
-758 799 0
-766 799 0
-774 799 0
-782 799 0
-790 799 0
800 0
793 -799 -801 0
-793 799 -801 0
-793 -799 801 0
793 799 801 0
-7 801 0
758 802 0
766 802 0
774 802 0
782 802 0
790 802 0
-803 0
-793 802 -804 0
793 -802 -804 0
804 -802 -793 0
793 802 804 0
-8 -804 0
4 6 7 8 0
-4 -6 0
-4 -7 0
-4 -8 0
-6 -7 0
-6 -8 0
-7 -8 0
2 0
10 0
14 0
18 0
22 0
26 0
30 0
34 0
38 0
42 0
-46 0
-120 0
-201 0
-291 0
-365 0
-415 0
-513 0
-569 0
-667 0
-732 0
1 -9 0
-1 9 0
1 -13 0
-1 13 0
1 -17 0
-1 17 0
1 -21 0
-1 21 0
1 -25 0
-1 25 0
1 -29 0
-1 29 0
1 -33 0
-1 33 0
1 -37 0
-1 37 0
1 -41 0
-1 41 0
9 -13 0
-9 13 0
9 -17 0
-9 17 0
9 -21 0
-9 21 0
9 -25 0
-9 25 0
9 -29 0
-9 29 0
9 -33 0
-9 33 0
9 -37 0
-9 37 0
9 -41 0
-9 41 0
13 -17 0
-13 17 0
13 -21 0
-13 21 0
13 -25 0
-13 25 0
13 -29 0
-13 29 0
13 -33 0
-13 33 0
13 -37 0
-13 37 0
13 -41 0
-13 41 0
17 -21 0
-17 21 0
17 -25 0
-17 25 0
17 -29 0
-17 29 0
17 -33 0
-17 33 0
17 -37 0
-17 37 0
17 -41 0
-17 41 0
21 -25 0
-21 25 0
21 -29 0
-21 29 0
21 -33 0
-21 33 0
21 -37 0
-21 37 0
21 -41 0
-21 41 0
25 -29 0
-25 29 0
25 -33 0
-25 33 0
25 -37 0
-25 37 0
25 -41 0
-25 41 0
29 -33 0
-29 33 0
29 -37 0
-29 37 0
29 -41 0
-29 41 0
33 -37 0
-33 37 0
33 -41 0
-33 41 0
37 -41 0
-37 41 0
56 -301 0
-56 301 0
64 -309 0
-64 309 0
72 -317 0
-72 317 0
80 -325 0
-80 325 0
88 -333 0
-88 333 0
96 -341 0
-96 341 0
104 -349 0
-104 349 0
56 -742 0
-56 742 0
64 -750 0
-64 750 0
72 -758 0
-72 758 0
80 -766 0
-80 766 0
88 -774 0
-88 774 0
96 -782 0
-96 782 0
104 -790 0
-104 790 0
162 -717 0
-162 717 0
170 -693 0
-170 693 0
178 -701 0
-178 701 0
186 -709 0
-186 709 0
290 -731 0
-290 731 0
293 -734 0
-293 734 0
301 -742 0
-301 742 0
309 -750 0
-309 750 0
317 -758 0
-317 758 0
325 -766 0
-325 766 0
333 -774 0
-333 774 0
341 -782 0
-341 782 0
349 -790 0
-349 790 0
